param n := 2;

param m := 2;

param K := 50;

param a :=
1 	 0.585759
2 	 0.969596
;
 param A :=
[1, *, *]:  1	2	:=
1	0.122060	0.601265	
2	-0.962705	-0.534051	

[2, *, *]:  1	2	:=
1	0.614210	0.727084	
2	-0.224279	0.494243	
;